p cnf 200 1110
-101 13 0
-101 9 0
-101 -97 0
-101 70 0
-101 12 0
-101 -72 0
-101 -30 0
-101 -80 0
-101 6 0
-101 4 0
101 -13 -9 97 -70 -12 72 30 80 -6 -4 0
-102 -3 0
-102 -50 0
-102 -22 0
-102 71 0
-102 -99 0
-102 -36 0
-102 82 0
-102 100 0
-102 -77 0
-102 -45 0
102 3 50 22 -71 99 36 -82 -100 77 45 0
-103 -22 0
-103 -26 0
-103 -25 0
-103 -96 0
-103 -68 0
-103 76 0
-103 -73 0
-103 19 0
-103 66 0
-103 51 0
103 22 26 25 96 68 -76 73 -19 -66 -51 0
-104 17 0
-104 27 0
-104 42 0
-104 95 0
-104 -81 0
-104 -6 0
-104 -16 0
-104 55 0
-104 22 0
-104 47 0
104 -17 -27 -42 -95 81 6 16 -55 -22 -47 0
-105 24 0
-105 81 0
-105 -13 0
-105 -6 0
-105 77 0
-105 -40 0
-105 -94 0
-105 69 0
-105 -38 0
-105 -60 0
105 -24 -81 13 6 -77 40 94 -69 38 60 0
-106 81 0
-106 -31 0
-106 28 0
-106 -73 0
-106 8 0
-106 68 0
-106 -41 0
-106 67 0
-106 46 0
-106 61 0
106 -81 31 -28 73 -8 -68 41 -67 -46 -61 0
-107 -22 0
-107 -26 0
-107 -90 0
-107 88 0
-107 -93 0
-107 -84 0
-107 29 0
-107 99 0
-107 -43 0
-107 30 0
107 22 26 90 -88 93 84 -29 -99 43 -30 0
-108 63 0
-108 -68 0
-108 -3 0
-108 14 0
-108 90 0
-108 -67 0
-108 45 0
-108 91 0
-108 40 0
-108 11 0
108 -63 68 3 -14 -90 67 -45 -91 -40 -11 0
-109 -76 0
-109 -86 0
-109 -21 0
-109 -38 0
-109 40 0
-109 -95 0
-109 31 0
-109 -37 0
-109 75 0
-109 -45 0
109 76 86 21 38 -40 95 -31 37 -75 45 0
-110 -88 0
-110 61 0
-110 55 0
-110 65 0
-110 -14 0
-110 7 0
-110 -82 0
-110 -36 0
-110 58 0
-110 -100 0
110 88 -61 -55 -65 14 -7 82 36 -58 100 0
101 102 103 104 105 106 107 108 109 110 0
-111 -97 0
-111 87 0
-111 62 0
-111 -18 0
-111 41 0
-111 10 0
-111 -39 0
-111 93 0
-111 34 0
-111 -96 0
111 97 -87 -62 18 -41 -10 39 -93 -34 96 0
-112 9 0
-112 83 0
-112 -69 0
-112 -2 0
-112 80 0
-112 -50 0
-112 99 0
-112 32 0
-112 88 0
-112 67 0
112 -9 -83 69 2 -80 50 -99 -32 -88 -67 0
-113 -51 0
-113 9 0
-113 -31 0
-113 -15 0
-113 62 0
-113 -2 0
-113 37 0
-113 19 0
-113 81 0
-113 48 0
113 51 -9 31 15 -62 2 -37 -19 -81 -48 0
-114 -90 0
-114 -33 0
-114 74 0
-114 -17 0
-114 88 0
-114 -100 0
-114 -71 0
-114 38 0
-114 1 0
-114 75 0
114 90 33 -74 17 -88 100 71 -38 -1 -75 0
-115 -33 0
-115 -47 0
-115 16 0
-115 -42 0
-115 77 0
-115 28 0
-115 -81 0
-115 67 0
-115 22 0
-115 29 0
115 33 47 -16 42 -77 -28 81 -67 -22 -29 0
-116 -44 0
-116 -22 0
-116 -97 0
-116 -55 0
-116 -69 0
-116 -53 0
-116 46 0
-116 -57 0
-116 -2 0
-116 19 0
116 44 22 97 55 69 53 -46 57 2 -19 0
-117 69 0
-117 95 0
-117 91 0
-117 56 0
-117 -46 0
-117 -90 0
-117 37 0
-117 32 0
-117 99 0
-117 85 0
117 -69 -95 -91 -56 46 90 -37 -32 -99 -85 0
-118 55 0
-118 87 0
-118 -90 0
-118 -13 0
-118 28 0
-118 75 0
-118 -92 0
-118 -21 0
-118 -98 0
-118 5 0
118 -55 -87 90 13 -28 -75 92 21 98 -5 0
-119 87 0
-119 -82 0
-119 -67 0
-119 26 0
-119 -100 0
-119 -28 0
-119 55 0
-119 31 0
-119 -96 0
-119 11 0
119 -87 82 67 -26 100 28 -55 -31 96 -11 0
-120 44 0
-120 -88 0
-120 31 0
-120 74 0
-120 -8 0
-120 -69 0
-120 80 0
-120 -34 0
-120 22 0
-120 -68 0
120 -44 88 -31 -74 8 69 -80 34 -22 68 0
111 112 113 114 115 116 117 118 119 120 0
-121 -92 0
-121 29 0
-121 73 0
-121 -49 0
-121 -28 0
-121 86 0
-121 -31 0
-121 37 0
-121 -24 0
-121 78 0
121 92 -29 -73 49 28 -86 31 -37 24 -78 0
-122 6 0
-122 -66 0
-122 -30 0
-122 58 0
-122 31 0
-122 -14 0
-122 27 0
-122 -46 0
-122 10 0
-122 -28 0
122 -6 66 30 -58 -31 14 -27 46 -10 28 0
-123 6 0
-123 -89 0
-123 88 0
-123 46 0
-123 -49 0
-123 -57 0
-123 45 0
-123 -34 0
-123 -54 0
-123 -96 0
123 -6 89 -88 -46 49 57 -45 34 54 96 0
-124 -63 0
-124 52 0
-124 -72 0
-124 60 0
-124 13 0
-124 25 0
-124 -5 0
-124 -67 0
-124 -48 0
-124 46 0
124 63 -52 72 -60 -13 -25 5 67 48 -46 0
-125 -18 0
-125 -58 0
-125 -37 0
-125 29 0
-125 -95 0
-125 74 0
-125 92 0
-125 90 0
-125 -98 0
-125 -26 0
125 18 58 37 -29 95 -74 -92 -90 98 26 0
-126 46 0
-126 -95 0
-126 -52 0
-126 -10 0
-126 -59 0
-126 84 0
-126 -71 0
-126 19 0
-126 -72 0
-126 -44 0
126 -46 95 52 10 59 -84 71 -19 72 44 0
-127 -40 0
-127 -91 0
-127 -66 0
-127 33 0
-127 -98 0
-127 93 0
-127 49 0
-127 -75 0
-127 -69 0
-127 -51 0
127 40 91 66 -33 98 -93 -49 75 69 51 0
-128 65 0
-128 33 0
-128 -43 0
-128 26 0
-128 -28 0
-128 -61 0
-128 -6 0
-128 -73 0
-128 -93 0
-128 8 0
128 -65 -33 43 -26 28 61 6 73 93 -8 0
-129 3 0
-129 -57 0
-129 14 0
-129 95 0
-129 88 0
-129 1 0
-129 91 0
-129 -7 0
-129 -47 0
-129 -23 0
129 -3 57 -14 -95 -88 -1 -91 7 47 23 0
-130 -63 0
-130 -50 0
-130 -44 0
-130 30 0
-130 18 0
-130 -47 0
-130 -46 0
-130 -94 0
-130 69 0
-130 78 0
130 63 50 44 -30 -18 47 46 94 -69 -78 0
121 122 123 124 125 126 127 128 129 130 0
-131 -37 0
-131 -29 0
-131 22 0
-131 68 0
-131 -85 0
-131 86 0
-131 -83 0
-131 57 0
-131 2 0
-131 -31 0
131 37 29 -22 -68 85 -86 83 -57 -2 31 0
-132 17 0
-132 93 0
-132 91 0
-132 -84 0
-132 70 0
-132 -28 0
-132 32 0
-132 69 0
-132 58 0
-132 7 0
132 -17 -93 -91 84 -70 28 -32 -69 -58 -7 0
-133 65 0
-133 59 0
-133 -70 0
-133 7 0
-133 -81 0
-133 -48 0
-133 -97 0
-133 -38 0
-133 -96 0
-133 74 0
133 -65 -59 70 -7 81 48 97 38 96 -74 0
-134 -99 0
-134 -89 0
-134 78 0
-134 -91 0
-134 -32 0
-134 4 0
-134 -8 0
-134 74 0
-134 -1 0
-134 41 0
134 99 89 -78 91 32 -4 8 -74 1 -41 0
-135 17 0
-135 -72 0
-135 30 0
-135 -92 0
-135 19 0
-135 36 0
-135 -85 0
-135 -79 0
-135 41 0
-135 39 0
135 -17 72 -30 92 -19 -36 85 79 -41 -39 0
-136 -49 0
-136 -75 0
-136 4 0
-136 -8 0
-136 55 0
-136 -81 0
-136 42 0
-136 -53 0
-136 29 0
-136 -6 0
136 49 75 -4 8 -55 81 -42 53 -29 6 0
-137 87 0
-137 -55 0
-137 57 0
-137 -67 0
-137 48 0
-137 -93 0
-137 -81 0
-137 -97 0
-137 26 0
-137 17 0
137 -87 55 -57 67 -48 93 81 97 -26 -17 0
-138 18 0
-138 25 0
-138 59 0
-138 81 0
-138 -88 0
-138 -100 0
-138 -97 0
-138 46 0
-138 -67 0
-138 44 0
138 -18 -25 -59 -81 88 100 97 -46 67 -44 0
-139 -45 0
-139 -20 0
-139 -77 0
-139 93 0
-139 44 0
-139 -76 0
-139 -92 0
-139 -84 0
-139 -73 0
-139 9 0
139 45 20 77 -93 -44 76 92 84 73 -9 0
-140 84 0
-140 -39 0
-140 -9 0
-140 -55 0
-140 95 0
-140 -22 0
-140 -88 0
-140 14 0
-140 47 0
-140 3 0
140 -84 39 9 55 -95 22 88 -14 -47 -3 0
131 132 133 134 135 136 137 138 139 140 0
-141 4 0
-141 -96 0
-141 72 0
-141 -38 0
-141 -17 0
-141 40 0
-141 77 0
-141 46 0
-141 -52 0
-141 99 0
141 -4 96 -72 38 17 -40 -77 -46 52 -99 0
-142 16 0
-142 100 0
-142 -78 0
-142 12 0
-142 23 0
-142 -20 0
-142 87 0
-142 72 0
-142 22 0
-142 92 0
142 -16 -100 78 -12 -23 20 -87 -72 -22 -92 0
-143 -37 0
-143 -2 0
-143 -39 0
-143 6 0
-143 96 0
-143 64 0
-143 -28 0
-143 93 0
-143 49 0
-143 71 0
143 37 2 39 -6 -96 -64 28 -93 -49 -71 0
-144 -63 0
-144 -75 0
-144 37 0
-144 -23 0
-144 9 0
-144 -70 0
-144 58 0
-144 28 0
-144 54 0
-144 86 0
144 63 75 -37 23 -9 70 -58 -28 -54 -86 0
-145 70 0
-145 -65 0
-145 -10 0
-145 24 0
-145 25 0
-145 -89 0
-145 -6 0
-145 -73 0
-145 -31 0
-145 92 0
145 -70 65 10 -24 -25 89 6 73 31 -92 0
-146 -91 0
-146 11 0
-146 87 0
-146 26 0
-146 22 0
-146 -98 0
-146 57 0
-146 27 0
-146 50 0
-146 -92 0
146 91 -11 -87 -26 -22 98 -57 -27 -50 92 0
-147 16 0
-147 24 0
-147 88 0
-147 9 0
-147 -12 0
-147 -52 0
-147 -90 0
-147 -35 0
-147 -49 0
-147 -7 0
147 -16 -24 -88 -9 12 52 90 35 49 7 0
-148 -47 0
-148 -35 0
-148 2 0
-148 -90 0
-148 84 0
-148 53 0
-148 -46 0
-148 96 0
-148 -29 0
-148 -39 0
148 47 35 -2 90 -84 -53 46 -96 29 39 0
-149 13 0
-149 -15 0
-149 -36 0
-149 35 0
-149 64 0
-149 28 0
-149 -89 0
-149 96 0
-149 72 0
-149 -86 0
149 -13 15 36 -35 -64 -28 89 -96 -72 86 0
-150 4 0
-150 -28 0
-150 -86 0
-150 -59 0
-150 50 0
-150 80 0
-150 -90 0
-150 24 0
-150 -7 0
-150 33 0
150 -4 28 86 59 -50 -80 90 -24 7 -33 0
141 142 143 144 145 146 147 148 149 150 0
-151 -67 0
-151 -16 0
-151 39 0
-151 95 0
-151 -21 0
-151 -56 0
-151 9 0
-151 70 0
-151 -75 0
-151 -41 0
151 67 16 -39 -95 21 56 -9 -70 75 41 0
-152 71 0
-152 -97 0
-152 10 0
-152 36 0
-152 -94 0
-152 -53 0
-152 -49 0
-152 -17 0
-152 37 0
-152 83 0
152 -71 97 -10 -36 94 53 49 17 -37 -83 0
-153 -12 0
-153 1 0
-153 -19 0
-153 69 0
-153 45 0
-153 10 0
-153 -42 0
-153 51 0
-153 3 0
-153 -18 0
153 12 -1 19 -69 -45 -10 42 -51 -3 18 0
-154 -33 0
-154 -63 0
-154 9 0
-154 36 0
-154 94 0
-154 -25 0
-154 86 0
-154 -49 0
-154 -84 0
-154 -71 0
154 33 63 -9 -36 -94 25 -86 49 84 71 0
-155 68 0
-155 88 0
-155 90 0
-155 1 0
-155 36 0
-155 41 0
-155 18 0
-155 6 0
-155 -63 0
-155 -93 0
155 -68 -88 -90 -1 -36 -41 -18 -6 63 93 0
-156 82 0
-156 -93 0
-156 -64 0
-156 -80 0
-156 49 0
-156 -56 0
-156 -59 0
-156 81 0
-156 -55 0
-156 -88 0
156 -82 93 64 80 -49 56 59 -81 55 88 0
-157 -11 0
-157 41 0
-157 -24 0
-157 -95 0
-157 -73 0
-157 7 0
-157 21 0
-157 48 0
-157 -2 0
-157 -93 0
157 11 -41 24 95 73 -7 -21 -48 2 93 0
-158 -19 0
-158 57 0
-158 -27 0
-158 97 0
-158 21 0
-158 67 0
-158 -100 0
-158 -45 0
-158 -49 0
-158 -28 0
158 19 -57 27 -97 -21 -67 100 45 49 28 0
-159 52 0
-159 44 0
-159 87 0
-159 80 0
-159 -63 0
-159 29 0
-159 4 0
-159 85 0
-159 -56 0
-159 86 0
159 -52 -44 -87 -80 63 -29 -4 -85 56 -86 0
-160 -8 0
-160 -87 0
-160 30 0
-160 78 0
-160 16 0
-160 47 0
-160 -22 0
-160 -38 0
-160 48 0
-160 -7 0
160 8 87 -30 -78 -16 -47 22 38 -48 7 0
151 152 153 154 155 156 157 158 159 160 0
-161 26 0
-161 -15 0
-161 -59 0
-161 74 0
-161 -17 0
-161 58 0
-161 10 0
-161 83 0
-161 3 0
-161 55 0
161 -26 15 59 -74 17 -58 -10 -83 -3 -55 0
-162 95 0
-162 85 0
-162 -71 0
-162 -70 0
-162 96 0
-162 69 0
-162 -17 0
-162 -32 0
-162 -68 0
-162 45 0
162 -95 -85 71 70 -96 -69 17 32 68 -45 0
-163 -8 0
-163 95 0
-163 -45 0
-163 -5 0
-163 87 0
-163 -65 0
-163 22 0
-163 7 0
-163 -19 0
-163 -25 0
163 8 -95 45 5 -87 65 -22 -7 19 25 0
-164 -33 0
-164 -91 0
-164 -87 0
-164 -40 0
-164 14 0
-164 59 0
-164 -7 0
-164 17 0
-164 -81 0
-164 -44 0
164 33 91 87 40 -14 -59 7 -17 81 44 0
-165 -73 0
-165 -96 0
-165 -99 0
-165 -14 0
-165 -58 0
-165 -90 0
-165 13 0
-165 -43 0
-165 37 0
-165 27 0
165 73 96 99 14 58 90 -13 43 -37 -27 0
-166 87 0
-166 49 0
-166 -42 0
-166 58 0
-166 70 0
-166 -46 0
-166 44 0
-166 40 0
-166 6 0
-166 -39 0
166 -87 -49 42 -58 -70 46 -44 -40 -6 39 0
-167 83 0
-167 -28 0
-167 88 0
-167 38 0
-167 74 0
-167 -12 0
-167 -20 0
-167 65 0
-167 90 0
-167 87 0
167 -83 28 -88 -38 -74 12 20 -65 -90 -87 0
-168 -4 0
-168 -25 0
-168 -69 0
-168 80 0
-168 7 0
-168 68 0
-168 11 0
-168 -49 0
-168 38 0
-168 26 0
168 4 25 69 -80 -7 -68 -11 49 -38 -26 0
-169 59 0
-169 -85 0
-169 -98 0
-169 -25 0
-169 -34 0
-169 -47 0
-169 67 0
-169 69 0
-169 23 0
-169 93 0
169 -59 85 98 25 34 47 -67 -69 -23 -93 0
-170 -14 0
-170 -28 0
-170 -81 0
-170 99 0
-170 -11 0
-170 -13 0
-170 4 0
-170 -44 0
-170 -7 0
-170 -12 0
170 14 28 81 -99 11 13 -4 44 7 12 0
161 162 163 164 165 166 167 168 169 170 0
-171 -28 0
-171 15 0
-171 46 0
-171 20 0
-171 -25 0
-171 55 0
-171 38 0
-171 77 0
-171 -74 0
-171 -56 0
171 28 -15 -46 -20 25 -55 -38 -77 74 56 0
-172 32 0
-172 9 0
-172 40 0
-172 -96 0
-172 13 0
-172 -44 0
-172 -14 0
-172 -33 0
-172 73 0
-172 -64 0
172 -32 -9 -40 96 -13 44 14 33 -73 64 0
-173 -100 0
-173 17 0
-173 -32 0
-173 88 0
-173 24 0
-173 -70 0
-173 84 0
-173 -80 0
-173 -41 0
-173 26 0
173 100 -17 32 -88 -24 70 -84 80 41 -26 0
-174 -48 0
-174 22 0
-174 -6 0
-174 -4 0
-174 -10 0
-174 -90 0
-174 91 0
-174 -33 0
-174 94 0
-174 43 0
174 48 -22 6 4 10 90 -91 33 -94 -43 0
-175 -60 0
-175 -100 0
-175 -76 0
-175 47 0
-175 67 0
-175 53 0
-175 93 0
-175 30 0
-175 69 0
-175 -1 0
175 60 100 76 -47 -67 -53 -93 -30 -69 1 0
-176 -23 0
-176 27 0
-176 -77 0
-176 36 0
-176 -56 0
-176 97 0
-176 -60 0
-176 49 0
-176 -66 0
-176 7 0
176 23 -27 77 -36 56 -97 60 -49 66 -7 0
-177 -31 0
-177 -38 0
-177 25 0
-177 -83 0
-177 -87 0
-177 -100 0
-177 -70 0
-177 74 0
-177 -95 0
-177 10 0
177 31 38 -25 83 87 100 70 -74 95 -10 0
-178 62 0
-178 -82 0
-178 100 0
-178 51 0
-178 -52 0
-178 -70 0
-178 -28 0
-178 94 0
-178 50 0
-178 85 0
178 -62 82 -100 -51 52 70 28 -94 -50 -85 0
-179 67 0
-179 33 0
-179 69 0
-179 -71 0
-179 -29 0
-179 87 0
-179 79 0
-179 -22 0
-179 25 0
-179 -44 0
179 -67 -33 -69 71 29 -87 -79 22 -25 44 0
-180 68 0
-180 14 0
-180 -51 0
-180 84 0
-180 18 0
-180 -49 0
-180 58 0
-180 -19 0
-180 78 0
-180 -83 0
180 -68 -14 51 -84 -18 49 -58 19 -78 83 0
171 172 173 174 175 176 177 178 179 180 0
-181 -16 0
-181 -33 0
-181 -41 0
-181 -17 0
-181 -56 0
-181 72 0
-181 -22 0
-181 -48 0
-181 -42 0
-181 -4 0
181 16 33 41 17 56 -72 22 48 42 4 0
-182 -77 0
-182 -39 0
-182 -31 0
-182 16 0
-182 -47 0
-182 -70 0
-182 17 0
-182 65 0
-182 69 0
-182 40 0
182 77 39 31 -16 47 70 -17 -65 -69 -40 0
-183 81 0
-183 -94 0
-183 73 0
-183 23 0
-183 82 0
-183 -100 0
-183 -32 0
-183 -71 0
-183 -12 0
-183 -70 0
183 -81 94 -73 -23 -82 100 32 71 12 70 0
-184 62 0
-184 -67 0
-184 22 0
-184 -37 0
-184 34 0
-184 2 0
-184 -60 0
-184 84 0
-184 -80 0
-184 -23 0
184 -62 67 -22 37 -34 -2 60 -84 80 23 0
-185 48 0
-185 84 0
-185 -42 0
-185 -8 0
-185 -56 0
-185 -85 0
-185 100 0
-185 -75 0
-185 -26 0
-185 55 0
185 -48 -84 42 8 56 85 -100 75 26 -55 0
-186 -66 0
-186 27 0
-186 -42 0
-186 -45 0
-186 -37 0
-186 23 0
-186 40 0
-186 65 0
-186 -61 0
-186 75 0
186 66 -27 42 45 37 -23 -40 -65 61 -75 0
-187 31 0
-187 74 0
-187 57 0
-187 92 0
-187 30 0
-187 60 0
-187 18 0
-187 -96 0
-187 49 0
-187 -87 0
187 -31 -74 -57 -92 -30 -60 -18 96 -49 87 0
-188 -39 0
-188 -51 0
-188 -33 0
-188 15 0
-188 -3 0
-188 -23 0
-188 71 0
-188 9 0
-188 -100 0
-188 -72 0
188 39 51 33 -15 3 23 -71 -9 100 72 0
-189 -29 0
-189 36 0
-189 -58 0
-189 44 0
-189 -33 0
-189 80 0
-189 38 0
-189 -71 0
-189 -7 0
-189 86 0
189 29 -36 58 -44 33 -80 -38 71 7 -86 0
-190 91 0
-190 -56 0
-190 47 0
-190 97 0
-190 -63 0
-190 -90 0
-190 -80 0
-190 -58 0
-190 -98 0
-190 -3 0
190 -91 56 -47 -97 63 90 80 58 98 3 0
181 182 183 184 185 186 187 188 189 190 0
-191 -47 0
-191 -28 0
-191 55 0
-191 17 0
-191 -3 0
-191 -90 0
-191 83 0
-191 -25 0
-191 79 0
-191 -32 0
191 47 28 -55 -17 3 90 -83 25 -79 32 0
-192 -37 0
-192 -85 0
-192 -67 0
-192 -18 0
-192 -92 0
-192 6 0
-192 -38 0
-192 88 0
-192 -66 0
-192 54 0
192 37 85 67 18 92 -6 38 -88 66 -54 0
-193 55 0
-193 91 0
-193 -86 0
-193 -29 0
-193 -72 0
-193 77 0
-193 -62 0
-193 -33 0
-193 -85 0
-193 8 0
193 -55 -91 86 29 72 -77 62 33 85 -8 0
-194 78 0
-194 30 0
-194 -25 0
-194 -95 0
-194 -34 0
-194 -22 0
-194 -61 0
-194 24 0
-194 59 0
-194 -27 0
194 -78 -30 25 95 34 22 61 -24 -59 27 0
-195 -91 0
-195 28 0
-195 67 0
-195 -23 0
-195 7 0
-195 33 0
-195 55 0
-195 2 0
-195 -9 0
-195 39 0
195 91 -28 -67 23 -7 -33 -55 -2 9 -39 0
-196 60 0
-196 -55 0
-196 73 0
-196 69 0
-196 90 0
-196 -37 0
-196 32 0
-196 17 0
-196 -46 0
-196 -28 0
196 -60 55 -73 -69 -90 37 -32 -17 46 28 0
-197 45 0
-197 93 0
-197 -29 0
-197 21 0
-197 -77 0
-197 26 0
-197 18 0
-197 -13 0
-197 34 0
-197 92 0
197 -45 -93 29 -21 77 -26 -18 13 -34 -92 0
-198 -36 0
-198 -69 0
-198 64 0
-198 -43 0
-198 12 0
-198 -31 0
-198 -78 0
-198 3 0
-198 -63 0
-198 51 0
198 36 69 -64 43 -12 31 78 -3 63 -51 0
-199 -94 0
-199 81 0
-199 -69 0
-199 -98 0
-199 36 0
-199 -52 0
-199 -79 0
-199 39 0
-199 -86 0
-199 -99 0
199 94 -81 69 98 -36 52 79 -39 86 99 0
-200 -57 0
-200 -56 0
-200 -3 0
-200 81 0
-200 52 0
-200 53 0
-200 -19 0
-200 -91 0
-200 13 0
-200 -16 0
200 57 56 3 -81 -52 -53 19 91 -13 16 0
191 192 193 194 195 196 197 198 199 200 0
